c Random generated cnf formula, satisfiable: false
p cnf 10 50
2 1 9 0
3 6 -4 0
1 8 6 0
8 -4 3 0
-10 -7 -3 0
8 7 1 0
-6 8 -2 0
4 -5 -1 0
-6 -10 4 0
9 -5 -3 0
4 -10 -3 0
10 3 6 0
-2 9 5 0
10 4 2 0
10 6 2 0
7 3 8 0
7 -2 -10 0
-4 9 8 0
-6 -5 -2 0
5 -10 -3 0
1 7 3 0
2 -3 6 0
2 -10 -4 0
1 -7 6 0
2 10 8 0
-9 -5 1 0
6 -9 5 0
-10 4 -9 0
6 -4 -1 0
10 8 9 0
-4 9 -6 0
-10 -6 -4 0
5 8 -1 0
-1 7 10 0
8 -1 6 0
-8 -9 4 0
4 7 3 0
-4 -1 -8 0
4 5 10 0
2 -7 4 0
-4 8 3 0
-8 -3 -2 0
-8 9 -2 0
5 -2 -8 0
-7 10 -8 0
-4 -3 -6 0
10 5 -6 0
8 -1 4 0
-3 -4 -5 0
6 -1 -2 0
